p cnf 582 1512
1 0
2 0
3 0
4 0
5 0
6 0
7 8 0
9 10 0
11 12 0
13 14 0
15 16 0
17 18 0
19 20 0
21 22 0
23 24 0
25 0
26 0
-27 25 0
-28 27 0
-29 28 0
-30 29 0
-31 30 0
-32 31 0
-33 32 0
-34 33 0
-35 34 0
-36 35 0
-37 36 0
-38 37 0
-39 38 0
-40 39 0
-41 40 0
-42 41 0
-43 42 0
-44 43 0
-45 44 0
-46 45 0
-47 46 0
-48 47 0
-49 48 0
-50 49 0
-51 50 0
-52 51 0
-53 52 0
-54 53 0
-55 54 0
-56 55 0
-57 58 0
-58 59 0
-59 60 0
-60 61 0
-61 62 0
-62 63 0
-63 64 0
-64 65 0
-65 66 0
-66 67 0
-67 68 0
-68 69 0
-69 70 0
-70 71 0
-71 72 0
-72 73 0
-73 74 0
-74 75 0
-75 76 0
-76 77 0
-77 78 0
-78 79 0
-79 80 0
-80 81 0
-81 26 0
-26 82 0
-82 83 0
-83 84 0
-84 85 0
-85 86 0
-25 -58 0
-27 -59 0
-28 -60 0
-29 -61 0
-30 -62 0
-31 -63 0
-32 -64 0
-33 -65 0
-34 -66 0
-35 -67 0
-36 -68 0
-37 -69 0
-38 -70 0
-39 -71 0
-40 -72 0
-41 -73 0
-42 -74 0
-43 -75 0
-44 -76 0
-45 -77 0
-46 -78 0
-47 -79 0
-48 -80 0
-49 -81 0
-50 -26 0
-51 -82 0
-52 -83 0
-53 -84 0
-54 -85 0
-55 -86 0
-25 -1 87 0
-25 -7 88 0
-25 -9 89 0
-27 -1 90 0
-27 -7 91 0
-27 -9 92 0
-28 -1 93 0
-28 -7 94 0
-28 -9 95 0
-29 -1 96 0
-29 -7 97 0
-29 -9 98 0
-30 -1 99 0
-30 -7 100 0
-30 -9 101 0
-31 -1 102 0
-31 -7 103 0
-31 -9 104 0
-32 -1 105 0
-32 -7 106 0
-32 -9 107 0
-33 -1 108 0
-33 -7 109 0
-33 -9 110 0
-34 -1 111 0
-34 -7 112 0
-34 -9 113 0
-35 -1 114 0
-35 -7 115 0
-35 -9 116 0
-36 -1 117 0
-36 -7 118 0
-36 -9 119 0
-37 -1 120 0
-37 -7 121 0
-37 -9 122 0
-38 -1 123 0
-38 -7 124 0
-38 -9 125 0
-39 -1 126 0
-39 -7 127 0
-39 -9 128 0
-40 -1 129 0
-40 -7 130 0
-40 -9 131 0
-41 -1 132 0
-41 -7 133 0
-41 -9 134 0
-42 -1 135 0
-42 -7 136 0
-42 -9 137 0
-43 -1 138 0
-43 -7 139 0
-43 -9 140 0
-44 -1 141 0
-44 -7 142 0
-44 -9 143 0
-45 -1 144 0
-45 -7 145 0
-45 -9 146 0
-46 -1 147 0
-46 -7 148 0
-46 -9 149 0
-47 -1 150 0
-47 -7 151 0
-47 -9 152 0
-48 -1 153 0
-48 -7 154 0
-48 -9 155 0
-49 -1 156 0
-49 -7 157 0
-49 -9 158 0
-50 -1 159 0
-50 -7 160 0
-50 -9 161 0
-51 -1 162 0
-51 -7 163 0
-51 -9 164 0
-52 -1 165 0
-52 -7 166 0
-52 -9 167 0
-53 -1 168 0
-53 -7 169 0
-53 -9 170 0
-54 -1 171 0
-54 -7 172 0
-54 -9 173 0
87 0
174 0
-175 176 0
-87 175 0
-90 87 0
-93 90 0
-96 93 0
-99 96 0
-102 99 0
-105 102 0
-108 105 0
-111 108 0
-114 111 0
-117 114 0
-120 117 0
-123 120 0
-126 123 0
-129 126 0
-132 129 0
-135 132 0
-138 135 0
-141 138 0
-144 141 0
-147 144 0
-150 147 0
-153 150 0
-156 153 0
-159 156 0
-162 159 0
-165 162 0
-168 165 0
-171 168 0
-177 178 0
-178 179 0
-179 180 0
-180 181 0
-181 182 0
-182 183 0
-183 184 0
-184 185 0
-185 186 0
-186 187 0
-187 188 0
-188 189 0
-189 190 0
-190 191 0
-191 192 0
-192 193 0
-193 194 0
-194 195 0
-195 196 0
-196 197 0
-197 198 0
-198 199 0
-199 200 0
-200 201 0
-201 202 0
-202 174 0
-174 203 0
-203 204 0
-204 205 0
-205 206 0
-176 -177 0
-175 -178 0
-87 -179 0
-90 -180 0
-93 -181 0
-96 -182 0
-99 -183 0
-102 -184 0
-105 -185 0
-108 -186 0
-111 -187 0
-114 -188 0
-117 -189 0
-120 -190 0
-123 -191 0
-126 -192 0
-129 -193 0
-132 -194 0
-135 -195 0
-138 -196 0
-141 -197 0
-144 -198 0
-147 -199 0
-150 -200 0
-153 -201 0
-156 -202 0
-159 -174 0
-162 -203 0
-165 -204 0
-168 -205 0
-171 -206 0
-176 -2 207 0
-176 -13 208 0
-176 -15 209 0
-175 -2 210 0
-175 -13 211 0
-175 -15 212 0
-87 -2 213 0
-87 -13 214 0
-87 -15 215 0
-90 -2 216 0
-90 -13 217 0
-90 -15 218 0
-93 -2 219 0
-93 -13 220 0
-93 -15 221 0
-96 -2 222 0
-96 -13 223 0
-96 -15 224 0
-99 -2 225 0
-99 -13 226 0
-99 -15 227 0
-102 -2 228 0
-102 -13 229 0
-102 -15 230 0
-105 -2 231 0
-105 -13 232 0
-105 -15 233 0
-108 -2 234 0
-108 -13 235 0
-108 -15 236 0
-111 -2 237 0
-111 -13 238 0
-111 -15 239 0
-114 -2 240 0
-114 -13 241 0
-114 -15 242 0
-117 -2 243 0
-117 -13 244 0
-117 -15 245 0
-120 -2 246 0
-120 -13 247 0
-120 -15 248 0
-123 -2 249 0
-123 -13 250 0
-123 -15 251 0
-126 -2 252 0
-126 -13 253 0
-126 -15 254 0
-129 -2 255 0
-129 -13 256 0
-129 -15 257 0
-132 -2 258 0
-132 -13 259 0
-132 -15 260 0
-135 -2 261 0
-135 -13 262 0
-135 -15 263 0
-138 -2 264 0
-138 -13 265 0
-138 -15 266 0
-141 -2 267 0
-141 -13 268 0
-141 -15 269 0
-144 -2 270 0
-144 -13 271 0
-144 -15 272 0
-147 -2 273 0
-147 -13 274 0
-147 -15 275 0
-150 -2 276 0
-150 -13 277 0
-150 -15 278 0
-153 -2 279 0
-153 -13 280 0
-153 -15 281 0
-156 -2 282 0
-156 -13 283 0
-156 -15 284 0
-159 -2 285 0
-159 -13 286 0
-159 -15 287 0
-162 -2 288 0
-162 -13 289 0
-162 -15 290 0
-165 -2 291 0
-165 -13 292 0
-165 -15 293 0
-168 -2 294 0
-168 -13 295 0
-168 -15 296 0
213 0
297 0
-207 298 0
-210 207 0
-213 210 0
-216 213 0
-219 216 0
-222 219 0
-225 222 0
-228 225 0
-231 228 0
-234 231 0
-237 234 0
-240 237 0
-243 240 0
-246 243 0
-249 246 0
-252 249 0
-255 252 0
-258 255 0
-261 258 0
-264 261 0
-267 264 0
-270 267 0
-273 270 0
-276 273 0
-279 276 0
-282 279 0
-285 282 0
-288 285 0
-291 288 0
-294 291 0
-299 300 0
-300 301 0
-301 302 0
-302 303 0
-303 304 0
-304 305 0
-305 306 0
-306 307 0
-307 308 0
-308 309 0
-309 310 0
-310 311 0
-311 312 0
-312 313 0
-313 314 0
-314 315 0
-315 316 0
-316 317 0
-317 318 0
-318 319 0
-319 320 0
-320 321 0
-321 322 0
-322 323 0
-323 324 0
-324 325 0
-325 326 0
-326 327 0
-327 328 0
-328 297 0
-298 -302 0
-207 -303 0
-210 -304 0
-213 -305 0
-216 -306 0
-219 -307 0
-222 -308 0
-225 -309 0
-228 -310 0
-231 -311 0
-234 -312 0
-237 -313 0
-240 -314 0
-243 -315 0
-246 -316 0
-249 -317 0
-252 -318 0
-255 -319 0
-258 -320 0
-261 -321 0
-264 -322 0
-267 -323 0
-270 -324 0
-273 -325 0
-276 -326 0
-279 -327 0
-282 -328 0
-285 -297 0
-298 -19 329 0
-298 -21 330 0
-207 -19 331 0
-207 -21 332 0
-210 -19 333 0
-210 -21 334 0
-213 -19 335 0
-213 -21 336 0
-216 -19 337 0
-216 -21 338 0
-219 -19 339 0
-219 -21 340 0
-222 -19 341 0
-222 -21 342 0
-225 -19 343 0
-225 -21 344 0
-228 -19 345 0
-228 -21 346 0
-231 -19 347 0
-231 -21 348 0
-234 -19 349 0
-234 -21 350 0
-237 -19 351 0
-237 -21 352 0
-240 -19 353 0
-240 -21 354 0
-243 -19 355 0
-243 -21 356 0
-246 -19 357 0
-246 -21 358 0
-249 -19 359 0
-249 -21 360 0
-252 -19 361 0
-252 -21 362 0
-255 -19 363 0
-255 -21 364 0
-258 -19 365 0
-258 -21 366 0
-261 -19 367 0
-261 -21 368 0
-264 -19 369 0
-264 -21 370 0
-267 -19 371 0
-267 -21 372 0
-270 -19 373 0
-270 -21 374 0
-273 -19 375 0
-273 -21 376 0
-276 -19 377 0
-276 -21 378 0
-279 -19 379 0
-279 -21 380 0
-282 -19 381 0
-282 -21 382 0
383 0
384 0
-385 383 0
-88 385 0
-91 88 0
-94 91 0
-97 94 0
-100 97 0
-103 100 0
-106 103 0
-109 106 0
-112 109 0
-115 112 0
-118 115 0
-121 118 0
-124 121 0
-127 124 0
-130 127 0
-133 130 0
-136 133 0
-139 136 0
-142 139 0
-145 142 0
-148 145 0
-151 148 0
-154 151 0
-157 154 0
-160 157 0
-163 160 0
-166 163 0
-169 166 0
-172 169 0
-386 387 0
-387 388 0
-388 389 0
-389 390 0
-390 391 0
-391 392 0
-392 393 0
-393 394 0
-394 395 0
-395 396 0
-396 397 0
-397 398 0
-398 399 0
-399 400 0
-400 401 0
-401 402 0
-402 403 0
-403 404 0
-404 405 0
-405 406 0
-406 407 0
-407 408 0
-408 409 0
-409 410 0
-410 411 0
-411 384 0
-384 412 0
-412 413 0
-413 414 0
-414 415 0
-383 -388 0
-385 -389 0
-88 -390 0
-91 -391 0
-94 -392 0
-97 -393 0
-100 -394 0
-103 -395 0
-106 -396 0
-109 -397 0
-112 -398 0
-115 -399 0
-118 -400 0
-121 -401 0
-124 -402 0
-127 -403 0
-130 -404 0
-133 -405 0
-136 -406 0
-139 -407 0
-142 -408 0
-145 -409 0
-148 -410 0
-151 -411 0
-154 -384 0
-157 -412 0
-160 -413 0
-163 -414 0
-166 -415 0
-383 -3 416 0
-383 -8 29 0
-383 -11 92 0
-385 -3 329 0
-385 -8 30 0
-385 -11 95 0
-88 -3 331 0
-88 -8 31 0
-88 -11 98 0
-91 -3 333 0
-91 -8 32 0
-91 -11 101 0
-94 -3 335 0
-94 -8 33 0
-94 -11 104 0
-97 -3 337 0
-97 -8 34 0
-97 -11 107 0
-100 -3 339 0
-100 -8 35 0
-100 -11 110 0
-103 -3 341 0
-103 -8 36 0
-103 -11 113 0
-106 -3 343 0
-106 -8 37 0
-106 -11 116 0
-109 -3 345 0
-109 -8 38 0
-109 -11 119 0
-112 -3 347 0
-112 -8 39 0
-112 -11 122 0
-115 -3 349 0
-115 -8 40 0
-115 -11 125 0
-118 -3 351 0
-118 -8 41 0
-118 -11 128 0
-121 -3 353 0
-121 -8 42 0
-121 -11 131 0
-124 -3 355 0
-124 -8 43 0
-124 -11 134 0
-127 -3 357 0
-127 -8 44 0
-127 -11 137 0
-130 -3 359 0
-130 -8 45 0
-130 -11 140 0
-133 -3 361 0
-133 -8 46 0
-133 -11 143 0
-136 -3 363 0
-136 -8 47 0
-136 -11 146 0
-139 -3 365 0
-139 -8 48 0
-139 -11 149 0
-142 -3 367 0
-142 -8 49 0
-142 -11 152 0
-145 -3 369 0
-145 -8 50 0
-145 -11 155 0
-148 -3 371 0
-148 -8 51 0
-148 -11 158 0
-151 -3 373 0
-151 -8 52 0
-151 -11 161 0
-154 -3 375 0
-154 -8 53 0
-154 -11 164 0
-157 -3 377 0
-157 -8 54 0
-157 -11 167 0
-160 -3 379 0
-160 -8 55 0
-160 -11 170 0
-163 -3 381 0
-163 -8 56 0
-163 -11 173 0
416 0
417 0
-418 419 0
-420 418 0
-416 420 0
-329 416 0
-331 329 0
-333 331 0
-335 333 0
-337 335 0
-339 337 0
-341 339 0
-343 341 0
-345 343 0
-347 345 0
-349 347 0
-351 349 0
-353 351 0
-355 353 0
-357 355 0
-359 357 0
-361 359 0
-363 361 0
-365 363 0
-367 365 0
-369 367 0
-371 369 0
-373 371 0
-375 373 0
-377 375 0
-379 377 0
-381 379 0
-421 422 0
-422 423 0
-423 424 0
-424 425 0
-425 426 0
-426 427 0
-427 428 0
-428 429 0
-429 430 0
-430 431 0
-431 432 0
-432 433 0
-433 434 0
-434 435 0
-435 436 0
-436 437 0
-437 438 0
-438 439 0
-439 440 0
-440 441 0
-441 442 0
-442 443 0
-443 444 0
-444 445 0
-445 446 0
-446 447 0
-447 448 0
-448 417 0
-417 449 0
-449 450 0
-419 -422 0
-418 -423 0
-420 -424 0
-416 -425 0
-329 -426 0
-331 -427 0
-333 -428 0
-335 -429 0
-337 -430 0
-339 -431 0
-341 -432 0
-343 -433 0
-345 -434 0
-347 -435 0
-349 -436 0
-351 -437 0
-353 -438 0
-355 -439 0
-357 -440 0
-359 -441 0
-361 -442 0
-363 -443 0
-365 -444 0
-367 -445 0
-369 -446 0
-371 -447 0
-373 -448 0
-375 -417 0
-377 -449 0
-379 -450 0
-419 -4 211 0
-419 -20 210 0
-419 -23 451 0
-418 -4 214 0
-418 -20 213 0
-418 -23 452 0
-420 -4 217 0
-420 -20 216 0
-420 -23 330 0
-416 -4 220 0
-416 -20 219 0
-416 -23 332 0
-329 -4 223 0
-329 -20 222 0
-329 -23 334 0
-331 -4 226 0
-331 -20 225 0
-331 -23 336 0
-333 -4 229 0
-333 -20 228 0
-333 -23 338 0
-335 -4 232 0
-335 -20 231 0
-335 -23 340 0
-337 -4 235 0
-337 -20 234 0
-337 -23 342 0
-339 -4 238 0
-339 -20 237 0
-339 -23 344 0
-341 -4 241 0
-341 -20 240 0
-341 -23 346 0
-343 -4 244 0
-343 -20 243 0
-343 -23 348 0
-345 -4 247 0
-345 -20 246 0
-345 -23 350 0
-347 -4 250 0
-347 -20 249 0
-347 -23 352 0
-349 -4 253 0
-349 -20 252 0
-349 -23 354 0
-351 -4 256 0
-351 -20 255 0
-351 -23 356 0
-353 -4 259 0
-353 -20 258 0
-353 -23 358 0
-355 -4 262 0
-355 -20 261 0
-355 -23 360 0
-357 -4 265 0
-357 -20 264 0
-357 -23 362 0
-359 -4 268 0
-359 -20 267 0
-359 -23 364 0
-361 -4 271 0
-361 -20 270 0
-361 -23 366 0
-363 -4 274 0
-363 -20 273 0
-363 -23 368 0
-365 -4 277 0
-365 -20 276 0
-365 -23 370 0
-367 -4 280 0
-367 -20 279 0
-367 -23 372 0
-369 -4 283 0
-369 -20 282 0
-369 -23 374 0
-371 -4 286 0
-371 -20 285 0
-371 -23 376 0
-373 -4 289 0
-373 -20 288 0
-373 -23 378 0
-375 -4 292 0
-375 -20 291 0
-375 -23 380 0
-377 -4 295 0
-377 -20 294 0
-377 -23 382 0
220 0
453 0
-208 454 0
-211 208 0
-214 211 0
-217 214 0
-220 217 0
-223 220 0
-226 223 0
-229 226 0
-232 229 0
-235 232 0
-238 235 0
-241 238 0
-244 241 0
-247 244 0
-250 247 0
-253 250 0
-256 253 0
-259 256 0
-262 259 0
-265 262 0
-268 265 0
-271 268 0
-274 271 0
-277 274 0
-280 277 0
-283 280 0
-286 283 0
-289 286 0
-292 289 0
-295 292 0
-455 456 0
-456 457 0
-457 458 0
-458 459 0
-459 460 0
-460 461 0
-461 462 0
-462 463 0
-463 464 0
-464 465 0
-465 466 0
-466 467 0
-467 468 0
-468 469 0
-469 470 0
-470 471 0
-471 472 0
-472 473 0
-473 474 0
-474 475 0
-475 476 0
-476 477 0
-477 478 0
-478 479 0
-479 480 0
-480 481 0
-481 482 0
-482 483 0
-483 484 0
-484 453 0
-454 -456 0
-208 -457 0
-211 -458 0
-214 -459 0
-217 -460 0
-220 -461 0
-223 -462 0
-226 -463 0
-229 -464 0
-232 -465 0
-235 -466 0
-238 -467 0
-241 -468 0
-244 -469 0
-247 -470 0
-250 -471 0
-253 -472 0
-256 -473 0
-259 -474 0
-262 -475 0
-265 -476 0
-268 -477 0
-271 -478 0
-274 -479 0
-277 -480 0
-280 -481 0
-283 -482 0
-286 -483 0
-289 -484 0
-292 -453 0
-454 -14 87 0
-454 -17 212 0
-208 -14 90 0
-208 -17 215 0
-211 -14 93 0
-211 -17 218 0
-214 -14 96 0
-214 -17 221 0
-217 -14 99 0
-217 -17 224 0
-220 -14 102 0
-220 -17 227 0
-223 -14 105 0
-223 -17 230 0
-226 -14 108 0
-226 -17 233 0
-229 -14 111 0
-229 -17 236 0
-232 -14 114 0
-232 -17 239 0
-235 -14 117 0
-235 -17 242 0
-238 -14 120 0
-238 -17 245 0
-241 -14 123 0
-241 -17 248 0
-244 -14 126 0
-244 -17 251 0
-247 -14 129 0
-247 -17 254 0
-250 -14 132 0
-250 -17 257 0
-253 -14 135 0
-253 -17 260 0
-256 -14 138 0
-256 -17 263 0
-259 -14 141 0
-259 -17 266 0
-262 -14 144 0
-262 -17 269 0
-265 -14 147 0
-265 -17 272 0
-268 -14 150 0
-268 -17 275 0
-271 -14 153 0
-271 -17 278 0
-274 -14 156 0
-274 -17 281 0
-277 -14 159 0
-277 -17 284 0
-280 -14 162 0
-280 -17 287 0
-283 -14 165 0
-283 -17 290 0
-286 -14 168 0
-286 -17 293 0
-289 -14 171 0
-289 -17 296 0
485 0
486 0
-487 485 0
-451 487 0
-452 451 0
-330 452 0
-332 330 0
-334 332 0
-336 334 0
-338 336 0
-340 338 0
-342 340 0
-344 342 0
-346 344 0
-348 346 0
-350 348 0
-352 350 0
-354 352 0
-356 354 0
-358 356 0
-360 358 0
-362 360 0
-364 362 0
-366 364 0
-368 366 0
-370 368 0
-372 370 0
-374 372 0
-376 374 0
-378 376 0
-380 378 0
-382 380 0
-488 489 0
-489 490 0
-490 491 0
-491 492 0
-492 493 0
-493 494 0
-494 495 0
-495 496 0
-496 497 0
-497 498 0
-498 499 0
-499 500 0
-500 501 0
-501 502 0
-502 503 0
-503 504 0
-504 505 0
-505 506 0
-506 507 0
-507 508 0
-508 509 0
-509 486 0
-486 510 0
-510 511 0
-511 512 0
-512 513 0
-513 514 0
-514 515 0
-515 516 0
-516 517 0
-485 -491 0
-487 -492 0
-451 -493 0
-452 -494 0
-330 -495 0
-332 -496 0
-334 -497 0
-336 -498 0
-338 -499 0
-340 -500 0
-342 -501 0
-344 -502 0
-346 -503 0
-348 -504 0
-350 -505 0
-352 -506 0
-354 -507 0
-356 -508 0
-358 -509 0
-360 -486 0
-362 -510 0
-364 -511 0
-366 -512 0
-368 -513 0
-370 -514 0
-372 -515 0
-374 -516 0
-376 -517 0
-485 -5 218 0
-485 -22 216 0
-485 -24 329 0
-487 -5 221 0
-487 -22 219 0
-487 -24 331 0
-451 -5 224 0
-451 -22 222 0
-451 -24 333 0
-452 -5 227 0
-452 -22 225 0
-452 -24 335 0
-330 -5 230 0
-330 -22 228 0
-330 -24 337 0
-332 -5 233 0
-332 -22 231 0
-332 -24 339 0
-334 -5 236 0
-334 -22 234 0
-334 -24 341 0
-336 -5 239 0
-336 -22 237 0
-336 -24 343 0
-338 -5 242 0
-338 -22 240 0
-338 -24 345 0
-340 -5 245 0
-340 -22 243 0
-340 -24 347 0
-342 -5 248 0
-342 -22 246 0
-342 -24 349 0
-344 -5 251 0
-344 -22 249 0
-344 -24 351 0
-346 -5 254 0
-346 -22 252 0
-346 -24 353 0
-348 -5 257 0
-348 -22 255 0
-348 -24 355 0
-350 -5 260 0
-350 -22 258 0
-350 -24 357 0
-352 -5 263 0
-352 -22 261 0
-352 -24 359 0
-354 -5 266 0
-354 -22 264 0
-354 -24 361 0
-356 -5 269 0
-356 -22 267 0
-356 -24 363 0
-358 -5 272 0
-358 -22 270 0
-358 -24 365 0
-360 -5 275 0
-360 -22 273 0
-360 -24 367 0
-362 -5 278 0
-362 -22 276 0
-362 -24 369 0
-364 -5 281 0
-364 -22 279 0
-364 -24 371 0
-366 -5 284 0
-366 -22 282 0
-366 -24 373 0
-368 -5 287 0
-368 -22 285 0
-368 -24 375 0
-370 -5 290 0
-370 -22 288 0
-370 -24 377 0
-372 -5 293 0
-372 -22 291 0
-372 -24 379 0
-374 -5 296 0
-374 -22 294 0
-374 -24 381 0
218 0
518 0
-209 519 0
-212 209 0
-215 212 0
-218 215 0
-221 218 0
-224 221 0
-227 224 0
-230 227 0
-233 230 0
-236 233 0
-239 236 0
-242 239 0
-245 242 0
-248 245 0
-251 248 0
-254 251 0
-257 254 0
-260 257 0
-263 260 0
-266 263 0
-269 266 0
-272 269 0
-275 272 0
-278 275 0
-281 278 0
-284 281 0
-287 284 0
-290 287 0
-293 290 0
-296 293 0
-520 521 0
-521 522 0
-522 523 0
-523 524 0
-524 525 0
-525 526 0
-526 527 0
-527 528 0
-528 529 0
-529 530 0
-530 531 0
-531 532 0
-532 533 0
-533 534 0
-534 535 0
-535 536 0
-536 537 0
-537 538 0
-538 539 0
-539 540 0
-540 541 0
-541 542 0
-542 543 0
-543 544 0
-544 518 0
-518 545 0
-545 546 0
-546 547 0
-547 548 0
-548 549 0
-519 -522 0
-209 -523 0
-212 -524 0
-215 -525 0
-218 -526 0
-221 -527 0
-224 -528 0
-227 -529 0
-230 -530 0
-233 -531 0
-236 -532 0
-239 -533 0
-242 -534 0
-245 -535 0
-248 -536 0
-251 -537 0
-254 -538 0
-257 -539 0
-260 -540 0
-263 -541 0
-266 -542 0
-269 -543 0
-272 -544 0
-275 -518 0
-278 -545 0
-281 -546 0
-284 -547 0
-287 -548 0
-290 -549 0
-519 -6 92 0
-519 -16 90 0
-519 -18 214 0
-209 -6 95 0
-209 -16 93 0
-209 -18 217 0
-212 -6 98 0
-212 -16 96 0
-212 -18 220 0
-215 -6 101 0
-215 -16 99 0
-215 -18 223 0
-218 -6 104 0
-218 -16 102 0
-218 -18 226 0
-221 -6 107 0
-221 -16 105 0
-221 -18 229 0
-224 -6 110 0
-224 -16 108 0
-224 -18 232 0
-227 -6 113 0
-227 -16 111 0
-227 -18 235 0
-230 -6 116 0
-230 -16 114 0
-230 -18 238 0
-233 -6 119 0
-233 -16 117 0
-233 -18 241 0
-236 -6 122 0
-236 -16 120 0
-236 -18 244 0
-239 -6 125 0
-239 -16 123 0
-239 -18 247 0
-242 -6 128 0
-242 -16 126 0
-242 -18 250 0
-245 -6 131 0
-245 -16 129 0
-245 -18 253 0
-248 -6 134 0
-248 -16 132 0
-248 -18 256 0
-251 -6 137 0
-251 -16 135 0
-251 -18 259 0
-254 -6 140 0
-254 -16 138 0
-254 -18 262 0
-257 -6 143 0
-257 -16 141 0
-257 -18 265 0
-260 -6 146 0
-260 -16 144 0
-260 -18 268 0
-263 -6 149 0
-263 -16 147 0
-263 -18 271 0
-266 -6 152 0
-266 -16 150 0
-266 -18 274 0
-269 -6 155 0
-269 -16 153 0
-269 -18 277 0
-272 -6 158 0
-272 -16 156 0
-272 -18 280 0
-275 -6 161 0
-275 -16 159 0
-275 -18 283 0
-278 -6 164 0
-278 -16 162 0
-278 -18 286 0
-281 -6 167 0
-281 -16 165 0
-281 -18 289 0
-284 -6 170 0
-284 -16 168 0
-284 -18 292 0
-287 -6 173 0
-287 -16 171 0
-287 -18 295 0
104 0
550 0
-551 552 0
-89 551 0
-92 89 0
-95 92 0
-98 95 0
-101 98 0
-104 101 0
-107 104 0
-110 107 0
-113 110 0
-116 113 0
-119 116 0
-122 119 0
-125 122 0
-128 125 0
-131 128 0
-134 131 0
-137 134 0
-140 137 0
-143 140 0
-146 143 0
-149 146 0
-152 149 0
-155 152 0
-158 155 0
-161 158 0
-164 161 0
-167 164 0
-170 167 0
-173 170 0
-553 554 0
-554 555 0
-555 556 0
-556 557 0
-557 558 0
-558 559 0
-559 560 0
-560 561 0
-561 562 0
-562 563 0
-563 564 0
-564 565 0
-565 566 0
-566 567 0
-567 568 0
-568 569 0
-569 570 0
-570 571 0
-571 572 0
-572 573 0
-573 574 0
-574 575 0
-575 576 0
-576 577 0
-577 578 0
-578 579 0
-579 580 0
-580 581 0
-581 582 0
-582 550 0
-552 -557 0
-551 -558 0
-89 -559 0
-92 -560 0
-95 -561 0
-98 -562 0
-101 -563 0
-104 -564 0
-107 -565 0
-110 -566 0
-113 -567 0
-116 -568 0
-119 -569 0
-122 -570 0
-125 -571 0
-128 -572 0
-131 -573 0
-134 -574 0
-137 -575 0
-140 -576 0
-143 -577 0
-146 -578 0
-149 -579 0
-152 -580 0
-155 -581 0
-158 -582 0
-161 -550 0
-552 -10 31 0
-552 -12 97 0
-551 -10 32 0
-551 -12 100 0
-89 -10 33 0
-89 -12 103 0
-92 -10 34 0
-92 -12 106 0
-95 -10 35 0
-95 -12 109 0
-98 -10 36 0
-98 -12 112 0
-101 -10 37 0
-101 -12 115 0
-104 -10 38 0
-104 -12 118 0
-107 -10 39 0
-107 -12 121 0
-110 -10 40 0
-110 -12 124 0
-113 -10 41 0
-113 -12 127 0
-116 -10 42 0
-116 -12 130 0
-119 -10 43 0
-119 -12 133 0
-122 -10 44 0
-122 -12 136 0
-125 -10 45 0
-125 -12 139 0
-128 -10 46 0
-128 -12 142 0
-131 -10 47 0
-131 -12 145 0
-134 -10 48 0
-134 -12 148 0
-137 -10 49 0
-137 -12 151 0
-140 -10 50 0
-140 -12 154 0
-143 -10 51 0
-143 -12 157 0
-146 -10 52 0
-146 -12 160 0
-149 -10 53 0
-149 -12 163 0
-152 -10 54 0
-152 -12 166 0
-155 -10 55 0
-155 -12 169 0
-158 -10 56 0
-158 -12 172 0
